data;

param: city: names :=
1 "Rio de Janeiro"
2 "Assuncao"
3 "Buenos Aires"
4 "Bariloche"
5 "Ushuaia"
6 "San Pedro de Atacama"
7 "La Paz"
8 "Uyuni"
;

param DIST: 1 2 3 4 5 6 7 8 :=
1 200000 1200 1600 1730 2531 2160 1900 2650
2 1200 200000 1530 2070 2248 2200 1970 2070
3 1600 1530 200000 974 1230 2610 1937 3518
4 1730 2070 974 200000 2100 3682 2700 4446
5 2531 2248 1230 2100 200000 3650 2810 4527
6 2160 2200 2610 3682 3650 200000 1980 2150
7 1900 1970 1937 2700 2810 1980 200000 640
8 2650 2070 3518 4446 4527 2150 640 200000
;